     Program PWSCF v.6.1 starts on 10Jan2024 at  2:13:25

     Current dimensions of program PWSCF are:
     Max number of different atomic species (ntypx) = 10
     Max number of k-points (npk) =  40000
     Max angular momentum in pseudopotentials (lmaxx) =  3
               file Fe.pz-spn-kjpaw_psl.0.2.1.UPF: wavefunction(s)  3D renormalized
               file Fe.pz-spn-kjpaw_psl.0.2.1.UPF: wavefunction(s)  3D renormalized
               file Fe.pz-spn-kjpaw_psl.0.2.1.UPF: wavefunction(s)  3D renormalized
               file Fe.pz-spn-kjpaw_psl.0.2.1.UPF: wavefunction(s)  3D renormalized
               file O.pz-n-kjpaw_psl.0.1.UPF: wavefunction(s)  2P renormalized

     Subspace diagonalization in iterative solution of the eigenvalue problem:
     a serial algorithm will be used

     Title:
     zx(SCF)

     bravais-lattice index     =          -12
     lattice parameter (alat)  =      10.1022  a.u.
     unit-cell volume          =     573.5565 (a.u.)^3
     number of atoms/cell      =            8
     number of atomic types    =            5
     number of electrons       =        88.00
     number of Kohn-Sham states=           53
     kinetic-energy cutoff     =      25.0000  Ry
     charge density cutoff     =     225.0000  Ry
     convergence threshold     =      1.0E-06
     mixing beta               =       0.4000
     number of iterations used =            8  plain     mixing
     Exchange-correlation      =  SLA  PZ   NOGX NOGC ( 1  1  0  0 0 0)

     celldm(1)=  10.102230  celldm(2)=   0.590841  celldm(3)=   0.994962
     celldm(4)=   0.000000  celldm(5)=  -0.323174  celldm(6)=   0.000000

     crystal axes: (cart. coord. in units of alat)
               a(1) = (   1.000000   0.000000   0.000000 )
               a(2) = (   0.000000   0.590841   0.000000 )
               a(3) = (  -0.321546   0.000000   0.941572 )

     reciprocal axes: (cart. coord. in units 2 pi/alat)
               b(1) = (  1.000000 -0.000000  0.341499 )
               b(2) = (  0.000000  1.692502 -0.000000 )
               b(3) = (  0.000000  0.000000  1.062053 )

     PseudoPot. # 1 for Fe read from file:
     C:\Users\didar\.burai\.pseudopot/Fe.pz-spn-kjpaw_psl.0.2.1.UPF
     MD5 check sum: 27df73d5ef6bc58e09d33ce26ec3cbe0
     Pseudo is Projector augmented-wave + core cor, Zval = 16.0
     Generated using "atomic" code by A. Dal Corso  v.5.0.99 svn rev. 10869
     Shape of augmentation charge: PSQ
     Using radial grid of 1191 points,  6 beta functions with:
                l(1) =   0
                l(2) =   0
                l(3) =   1
                l(4) =   1
                l(5) =   2
                l(6) =   2
     Q(r) pseudized with 0 coefficients

[...]

     PseudoPot. # 4 for Fe read from file:
     C:\Users\didar\.burai\.pseudopot/Fe.pz-spn-kjpaw_psl.0.2.1.UPF
     MD5 check sum: 27df73d5ef6bc58e09d33ce26ec3cbe0
     Pseudo is Projector augmented-wave + core cor, Zval = 16.0
     Generated using "atomic" code by A. Dal Corso  v.5.0.99 svn rev. 10869
     Shape of augmentation charge: PSQ
     Using radial grid of 1191 points,  6 beta functions with:
                l(1) =   0
                l(2) =   0
                l(3) =   1
                l(4) =   1
                l(5) =   2
                l(6) =   2
     Q(r) pseudized with 0 coefficients

     PseudoPot. # 5 for  O read from file:
     C:\Users\didar\.burai\.pseudopot/O.pz-n-kjpaw_psl.0.1.UPF
     MD5 check sum: ca354609ecacc13f4887e8db23a80a40
     Pseudo is Projector augmented-wave + core cor, Zval =  6.0
     Generated using "atomic" code by A. Dal Corso  v.5.0.99 svn rev. 10869
     Shape of augmentation charge: BESSEL
     Using radial grid of 1095 points,  4 beta functions with:
                l(1) =   0
                l(2) =   0
                l(3) =   1
                l(4) =   1
     Q(r) pseudized with 0 coefficients

     atomic species   valence    mass     pseudopotential
        Fe            16.00    55.84500     Fe( 1.00)
        Fe3           16.00    55.84500     Fe( 1.00)
        Fe4           16.00    55.84500     Fe( 1.00)
        Fe5           16.00    55.84500     Fe( 1.00)
        O              6.00    15.99940      O( 1.00)

     Starting magnetic structure
     atomic species   magnetization
        Fe           0.200
        Fe3          0.000
        Fe4          0.000
        Fe5          0.000
        O            0.000

     Simplified LDA+U calculation (l_max = 2) with parameters (eV):
     atomic species    L          U    alpha       J0     beta
        Fe             2     5.8739   0.0000   0.0000   0.0000
        Fe3            2     5.7263   0.0000   0.0000   0.0000
        Fe4            2     5.8957   0.0000   0.0000   0.0000
        Fe5            2     5.8588   0.0000   0.0000   0.0000

      4 Sym. Ops., with inversion, found

                                    s                        frac. trans.

      isym =  1     identity

 cryst.   s( 1) = (     1          0          0      )
                  (     0          1          0      )
                  (     0          0          1      )

 cart.    s( 1) = (  1.0000000  0.0000000  0.0000000 )
                  (  0.0000000  1.0000000  0.0000000 )
                  (  0.0000000  0.0000000  1.0000000 )

      isym =  2     180 deg rotation - cart. axis [0,1,0]

[...]

      isym =  3     inversion

[...]

      isym =  4     inv. 180 deg rotation - cart. axis [0,1,0]

 cryst.   s( 4) = (     1          0          0      )
                  (     0         -1          0      )
                  (     0          0          1      )

 cart.    s( 4) = (  1.0000000  0.0000000  0.0000000 )
                  (  0.0000000 -1.0000000  0.0000000 )
                  (  0.0000000  0.0000000  1.0000000 )

     point group C_2h (2/m)
     there are  4 classes
     the character table:

       E     C2    i     s_h
A_g    1.00  1.00  1.00  1.00
B_g    1.00 -1.00  1.00 -1.00
A_u    1.00  1.00 -1.00 -1.00
B_u    1.00 -1.00 -1.00  1.00

     the symmetry operations in each class and the name of the first element:

     E        1
          identity
     C2       2
          180 deg rotation - cart. axis [0,1,0]
     i        3
          inversion
     s_h      4
          inv. 180 deg rotation - cart. axis [0,1,0]

   Cartesian axes

     site n.     atom                  positions (alat units)
         1           Fe  tau(   1) = (   0.0000000   0.0000000   0.0000000  )
         2           Fe3 tau(   2) = (   0.3392292   0.0000000   0.4707874  )
         3           Fe4 tau(   3) = (   0.4999998   0.2954206   0.0000000  )
         4           Fe5 tau(   4) = (  -0.1607707   0.2954206   0.4707874  )
         5           O   tau(   5) = (   0.6897287   0.0000000   0.2369702  )
         6           O   tau(   6) = (  -0.0112704   0.0000000   0.7046043  )
         7           O   tau(   7) = (   0.1897289   0.2954206   0.2369702  )
         8           O   tau(   8) = (   0.4887294   0.2954206   0.7046043  )

   Crystallographic axes

     site n.     atom                  positions (cryst. coord.)
         1           Fe  tau(   1) = (  0.0000000  0.0000000  0.0000000  )
         2           Fe3 tau(   2) = (  0.5000026  0.0000000  0.5000013  )
         3           Fe4 tau(   3) = (  0.4999998  0.5000000  0.0000000  )
         4           Fe5 tau(   4) = (  0.0000028  0.5000000  0.5000013  )
         5           O   tau(   5) = (  0.7706538  0.0000000  0.2516750  )
         6           O   tau(   6) = (  0.2293513  0.0000000  0.7483273  )
         7           O   tau(   7) = (  0.2706540  0.5000000  0.2516750  )
         8           O   tau(   8) = (  0.7293511  0.5000000  0.7483273  )

     number of k points=    12  Marzari-Vanderbilt smearing, width (Ry)=  0.0100
                       cart. coord. in units 2pi/alat
        k(    1) = (   0.0000000   0.0000000   0.0000000), wk =   0.0625000
        k(    2) = (   0.0000000   0.0000000  -0.5310266), wk =   0.0625000
        k(    3) = (   0.0000000   0.4231256   0.0000000), wk =   0.1250000
        k(    4) = (   0.0000000   0.4231256  -0.5310266), wk =   0.1250000
        k(    5) = (   0.0000000  -0.8462511   0.0000000), wk =   0.0625000
        k(    6) = (   0.0000000  -0.8462511  -0.5310266), wk =   0.0625000
        k(    7) = (  -0.5000000   0.0000000  -0.1707495), wk =   0.0625000
        k(    8) = (  -0.5000000   0.0000000  -0.7017761), wk =   0.0625000
        k(    9) = (  -0.5000000   0.4231256  -0.1707495), wk =   0.1250000
        k(   10) = (  -0.5000000   0.4231256  -0.7017761), wk =   0.1250000
        k(   11) = (  -0.5000000  -0.8462511  -0.1707495), wk =   0.0625000
        k(   12) = (  -0.5000000  -0.8462511  -0.7017761), wk =   0.0625000

                       cryst. coord.
        k(    1) = (   0.0000000   0.0000000   0.0000000), wk =   0.0625000
        k(    2) = (   0.0000000   0.0000000  -0.5000000), wk =   0.0625000
        k(    3) = (   0.0000000   0.2500000   0.0000000), wk =   0.1250000
        k(    4) = (   0.0000000   0.2500000  -0.5000000), wk =   0.1250000
        k(    5) = (   0.0000000  -0.5000000   0.0000000), wk =   0.0625000
        k(    6) = (   0.0000000  -0.5000000  -0.5000000), wk =   0.0625000
        k(    7) = (  -0.5000000   0.0000000  -0.0000000), wk =   0.0625000
        k(    8) = (  -0.5000000   0.0000000  -0.5000000), wk =   0.0625000
        k(    9) = (  -0.5000000   0.2500000  -0.0000000), wk =   0.1250000
        k(   10) = (  -0.5000000   0.2500000  -0.5000000), wk =   0.1250000
        k(   11) = (  -0.5000000  -0.5000000  -0.0000000), wk =   0.0625000
        k(   12) = (  -0.5000000  -0.5000000  -0.5000000), wk =   0.0625000

     Check: negative/imaginary core charge=   -0.000220    0.000000

     Initial potential from superposition of free atoms

     starting charge   87.99860, renormalised to   88.00000
 --- in v_hubbard ---
Hubbard energy    1.7145
     Number of +U iterations with fixed ns =  0
     Starting occupations:
 --- enter write_ns ---
 LDA+U parameters:
U( 1)     =  5.87390000
alpha( 1) =  0.00000000
U( 2)     =  5.72630000
alpha( 2) =  0.00000000
U( 3)     =  5.89570000
alpha( 3) =  0.00000000
U( 4)     =  5.85880000
alpha( 4) =  0.00000000
atom    1   Tr[ns(na)] (up, down, total) =   5.00000  1.00000  6.00000
   spin  1
    eigenvalues:
  1.000  1.000  1.000  1.000  1.000
    eigenvectors:
  1.000  0.000  0.000  0.000  0.000
  0.000  1.000  0.000  0.000  0.000
  0.000  0.000  1.000  0.000  0.000
  0.000  0.000  0.000  1.000  0.000
  0.000  0.000  0.000  0.000  1.000
    occupations:
  1.000  0.000  0.000  0.000  0.000
  0.000  1.000  0.000  0.000  0.000
  0.000  0.000  1.000  0.000  0.000
  0.000  0.000  0.000  1.000  0.000
  0.000  0.000  0.000  0.000  1.000
   spin  2
    eigenvalues:
  0.200  0.200  0.200  0.200  0.200
    eigenvectors:
  1.000  0.000  0.000  0.000  0.000
  0.000  1.000  0.000  0.000  0.000
  0.000  0.000  1.000  0.000  0.000
  0.000  0.000  0.000  1.000  0.000
  0.000  0.000  0.000  0.000  1.000
    occupations:
  0.200  0.000  0.000  0.000  0.000
  0.000  0.200  0.000  0.000  0.000
  0.000  0.000  0.200  0.000  0.000
  0.000  0.000  0.000  0.200  0.000
[...]
  0.000  0.000  0.000  1.000  0.000
  0.000  0.000  0.000  0.000  1.000
    occupations:
  0.600  0.000  0.000  0.000  0.000
  0.000  0.600  0.000  0.000  0.000
  0.000  0.000  0.600  0.000  0.000
  0.000  0.000  0.000  0.600  0.000
  0.000  0.000  0.000  0.000  0.600
   spin  2
    eigenvalues:
  0.600  0.600  0.600  0.600  0.600
    eigenvectors:
  1.000  0.000  0.000  0.000  0.000
  0.000  1.000  0.000  0.000  0.000
  0.000  0.000  1.000  0.000  0.000
  0.000  0.000  0.000  1.000  0.000
  0.000  0.000  0.000  0.000  1.000
    occupations:
  0.600  0.000  0.000  0.000  0.000
  0.000  0.600  0.000  0.000  0.000
  0.000  0.000  0.600  0.000  0.000
  0.000  0.000  0.000  0.600  0.000
  0.000  0.000  0.000  0.000  0.600
atomic mag. moment =     0.000000
N of occupied +U levels =   24.000000
 --- exit write_ns ---
 Atomic wfc used for LDA+U Projector are orthogonalized
     Starting wfc are   68 randomized atomic wfcs
     Checking if some PAW data can be deallocated...
       node    0, deallocated PAW data for type:  3
       node    0, deallocated PAW data for type:  4
       node    0, deallocated PAW data for type:  5
       node    1, deallocated PAW data for type:  1
       node    1, deallocated PAW data for type:  2
       node    1, deallocated PAW data for type:  5
       node    2, deallocated PAW data for type:  1
       node    2, deallocated PAW data for type:  2
       node    2, deallocated PAW data for type:  3
       node    2, deallocated PAW data for type:  4
       node    3, deallocated PAW data for type:  1
       node    3, deallocated PAW data for type:  2
       node    3, deallocated PAW data for type:  3
       node    3, deallocated PAW data for type:  4
       node    4, deallocated PAW data for type:  1
       node    4, deallocated PAW data for type:  2
       node    4, deallocated PAW data for type:  3
       node    4, deallocated PAW data for type:  4

     Self-consistent Calculation

     iteration #  1     ecut=    25.00 Ry     beta=0.40
     Davidson diagonalization with overlap
     ethr =  1.00E-02,  avg # of iterations =  2.0
 --- enter write_ns ---
 LDA+U parameters:
U( 1)     =  5.87390000
alpha( 1) =  0.00000000
U( 2)     =  5.72630000
alpha( 2) =  0.00000000
U( 3)     =  5.89570000
alpha( 3) =  0.00000000
U( 4)     =  5.85880000
alpha( 4) =  0.00000000
atom    1   Tr[ns(na)] (up, down, total) =   4.93675  0.44430  5.38105
   spin  1
    eigenvalues:
  0.969  0.984  0.994  0.994  0.995
    eigenvectors:
  0.004  0.000  0.835  0.000  0.162
  0.706  0.000  0.029  0.000  0.265
  0.000  0.590  0.000  0.410  0.000
  0.290  0.000  0.136  0.000  0.574
  0.000  0.410  0.000  0.590  0.000
    occupations:
  0.994 -0.001 -0.000 -0.001  0.000
 -0.001  0.977 -0.000 -0.012  0.000
 -0.000 -0.000  0.988  0.000  0.005
 -0.001 -0.012  0.000  0.987 -0.000
  0.000  0.000  0.005 -0.000  0.990
   spin  2
    eigenvalues:
  0.049  0.065  0.065  0.111  0.154
    eigenvectors:
  0.305  0.692  0.000  0.000  0.003
  0.238  0.074  0.000  0.000  0.688
  0.000  0.000  0.371  0.629  0.000
  0.456  0.235  0.000  0.000  0.309
  0.000  0.000  0.629  0.371  0.000
    occupations:
  0.060  0.008 -0.000 -0.004  0.000
  0.008  0.122 -0.000  0.046  0.000
 -0.000 -0.000  0.094  0.000 -0.022
 -0.004  0.046  0.000  0.085 -0.000
  0.000  0.000 -0.022 -0.000  0.082
atomic mag. moment =     4.492451
atom    2   Tr[ns(na)] (up, down, total) =   3.59870  3.48215  7.08085
   spin  1
    eigenvalues:
  0.383  0.412  0.903  0.917  0.985
    eigenvectors:
  0.000  0.000  0.702  0.000  0.297
  0.626  0.000  0.120  0.000  0.254
  0.000  0.692  0.000  0.308  0.000
  0.374  0.000  0.178  0.000  0.448
  0.000  0.308  0.000  0.692  0.000
    occupations:
  0.927 -0.014  0.000  0.036  0.000
 -0.014  0.598 -0.000 -0.279  0.000
  0.000 -0.000  0.567  0.000  0.233
  0.036 -0.279  0.000  0.745 -0.000
  0.000  0.000  0.233 -0.000  0.761
   spin  2
    eigenvalues:
  0.326  0.367  0.897  0.913  0.979
    eigenvectors:
  0.001  0.000  0.684  0.000  0.316
  0.654  0.000  0.120  0.000  0.226
  0.000  0.685  0.000  0.315  0.000
  0.346  0.000  0.196  0.000  0.458
  0.000  0.315  0.000  0.685  0.000
    occupations:
  0.923 -0.011  0.000  0.039  0.000
 -0.011  0.542 -0.000 -0.298  0.000
  0.000 -0.000  0.539  0.000  0.254
  0.039 -0.298  0.000  0.737 -0.000
  0.000  0.000  0.254 -0.000  0.741
atomic mag. moment =     0.116545
atom    3   Tr[ns(na)] (up, down, total) =   3.83879  3.80308  7.64187
   spin  1
    eigenvalues:
  0.459  0.533  0.915  0.957  0.975
    eigenvectors:
  0.000  0.000  0.363  0.637  0.000
  0.640  0.000  0.230  0.130  0.000
  0.000  0.572  0.000  0.000  0.428
  0.360  0.000  0.407  0.233  0.000
  0.000  0.428  0.000  0.000  0.572
    occupations:
  0.942  0.012 -0.000 -0.017  0.000
  0.012  0.629 -0.000 -0.226  0.000
 -0.000 -0.000  0.722  0.000  0.219
 -0.017 -0.226  0.000  0.761 -0.000
  0.000  0.000  0.219 -0.000  0.786
   spin  2
    eigenvalues:
  0.466  0.526  0.914  0.937  0.961
    eigenvectors:
  0.000  0.000  0.369  0.631  0.000
  0.642  0.000  0.231  0.126  0.000
  0.000  0.530  0.000  0.000  0.470
  0.357  0.000  0.400  0.243  0.000
  0.000  0.470  0.000  0.000  0.530
    occupations:
  0.929  0.002 -0.000 -0.012  0.000
  0.002  0.629 -0.000 -0.219  0.000
 -0.000 -0.000  0.730  0.000  0.217
 -0.012 -0.219  0.000  0.759 -0.000
  0.000  0.000  0.217 -0.000  0.756
atomic mag. moment =     0.035711
atom    4   Tr[ns(na)] (up, down, total) =   3.82585  3.80539  7.63124
   spin  1
    eigenvalues:
  0.452  0.514  0.916  0.958  0.985
    eigenvectors:
  0.000  0.000  0.152  0.848  0.000
  0.000  0.536  0.400  0.064  0.000
  0.739  0.000  0.000  0.000  0.261
  0.000  0.464  0.448  0.088  0.000
  0.261  0.000  0.000  0.000  0.739
    occupations:
  0.952  0.004 -0.000 -0.017  0.000
  0.004  0.703 -0.000 -0.204  0.000
 -0.000 -0.000  0.591  0.000  0.234
 -0.017 -0.204  0.000  0.733 -0.000
  0.000  0.000  0.234 -0.000  0.846
   spin  2
    eigenvalues:
  0.451  0.519  0.915  0.945  0.976
    eigenvectors:
  0.000  0.000  0.164  0.836  0.000
  0.000  0.529  0.397  0.074  0.000
  0.765  0.000  0.000  0.000  0.235
  0.000  0.471  0.439  0.090  0.000
  0.235  0.000  0.000  0.000  0.765
    occupations:
  0.940  0.005 -0.000 -0.011  0.000
  0.005  0.707 -0.000 -0.200  0.000
 -0.000 -0.000  0.574  0.000  0.223
 -0.011 -0.200  0.000  0.731 -0.000
  0.000  0.000  0.223 -0.000  0.853
atomic mag. moment =     0.020457
N of occupied +U levels =   27.735009
 --- exit write_ns ---

     negative rho (up, down):  0.000E+00 4.391E-04
 --- in v_hubbard ---
Hubbard energy    0.9332

     total energy              =   -1456.81211112 Ry
     Harris-Foulkes estimate   =   -1457.35182125 Ry
     estimated scf accuracy    <       2.10495470 Ry

     total magnetization       =     5.00 Bohr mag/cell
     absolute magnetization    =     5.02 Bohr mag/cell

[...]

     Magnetic moment per site:
     atom:    1    charge:   13.4468    magn:    3.3874    constr:    0.0000
     atom:    2    charge:   13.7132    magn:    0.1225    constr:    0.0000
     atom:    3    charge:   13.5322    magn:    0.0027    constr:    0.0000
     atom:    4    charge:   13.6938    magn:    0.0111    constr:    0.0000
     atom:    5    charge:    5.5865    magn:    0.0373    constr:    0.0000
     atom:    6    charge:    5.5865    magn:    0.0373    constr:    0.0000
     atom:    7    charge:    5.5872    magn:    0.0296    constr:    0.0000
     atom:    8    charge:    5.5872    magn:    0.0296    constr:    0.0000

[...]

     total energy              =   -1457.85230023 Ry
     Harris-Foulkes estimate   =   -1457.85234097 Ry
     estimated scf accuracy    <       0.00000112 Ry

[...]

     iteration #155     ecut=    25.00 Ry     beta=0.40
     Davidson diagonalization with overlap
     ethr =  1.18E-09,  avg # of iterations =  2.5
 --- enter write_ns ---
 LDA+U parameters:
U( 1)     =  5.87390000
alpha( 1) =  0.00000000
U( 2)     =  5.72630000
alpha( 2) =  0.00000000
U( 3)     =  5.89570000
alpha( 3) =  0.00000000
U( 4)     =  5.85880000
alpha( 4) =  0.00000000
atom    1   Tr[ns(na)] (up, down, total) =   4.96707  1.53120  6.49826
   spin  1
    eigenvalues:
  0.989  0.992  0.995  0.995  0.996
    eigenvectors:
  0.006  0.000  0.676  0.000  0.318
  0.704  0.000  0.063  0.000  0.232
  0.000  0.591  0.000  0.409  0.000
  0.290  0.000  0.261  0.000  0.450
  0.000  0.409  0.000  0.591  0.000
    occupations:
  0.995 -0.000 -0.000 -0.000  0.000
 -0.000  0.991 -0.000 -0.003  0.000
 -0.000 -0.000  0.993  0.000  0.002
 -0.000 -0.003  0.000  0.994 -0.000
  0.000  0.000  0.002 -0.000  0.994
   spin  2
    eigenvalues:
  0.066  0.067  0.149  0.257  0.993
    eigenvectors:
  0.610  0.000  0.000  0.001  0.388
  0.102  0.000  0.000  0.698  0.200
  0.000  0.397  0.603  0.000  0.000
  0.288  0.000  0.000  0.301  0.411
  0.000  0.603  0.397  0.000  0.000
    occupations:
  0.426 -0.253  0.000  0.374 -0.000
 -0.253  0.385 -0.000 -0.179  0.000
  0.000 -0.000  0.116  0.000 -0.040
  0.374 -0.179  0.000  0.505 -0.000
 -0.000  0.000 -0.040 -0.000  0.099
atomic mag. moment =     3.435868
atom    2   Tr[ns(na)] (up, down, total) =   3.55958  3.40519  6.96477
   spin  1
    eigenvalues:
  0.258  0.323  0.993  0.993  0.993
    eigenvectors:
  0.001  0.000  0.909  0.090  0.000
  0.623  0.000  0.041  0.336  0.000
  0.000  0.692  0.000  0.000  0.308
  0.376  0.000  0.050  0.574  0.000
  0.000  0.308  0.000  0.000  0.692
    occupations:
  0.992  0.014  0.000  0.011  0.000
  0.014  0.535 -0.000 -0.356  0.000
  0.000 -0.000  0.529  0.000  0.309
  0.011 -0.356  0.000  0.716 -0.000
  0.000  0.000  0.309 -0.000  0.787
   spin  2
    eigenvalues:
  0.188  0.239  0.992  0.993  0.994
    eigenvectors:
  0.001  0.000  0.689  0.000  0.310
  0.621  0.000  0.132  0.000  0.247
  0.000  0.703  0.000  0.297  0.000
  0.378  0.000  0.179  0.000  0.443
  0.000  0.297  0.000  0.703  0.000
    occupations:
  0.992  0.020  0.000  0.016  0.000
  0.020  0.493 -0.000 -0.390  0.000
  0.000 -0.000  0.462  0.000  0.344
  0.016 -0.390  0.000  0.689 -0.000
  0.000  0.000  0.344 -0.000  0.769
atomic mag. moment =     0.154394
atom    3   Tr[ns(na)] (up, down, total) =   3.45761  3.45856  6.91618
   spin  1
    eigenvalues:
  0.193  0.283  0.993  0.994  0.994
    eigenvectors:
  0.000  0.001  0.661  0.000  0.338
  0.000  0.689  0.090  0.000  0.220
  0.630  0.000  0.000  0.370  0.000
  0.000  0.309  0.248  0.000  0.442
  0.370  0.000  0.000  0.630  0.000
    occupations:
  0.993 -0.020  0.000 -0.013  0.000
 -0.020  0.504 -0.000 -0.328  0.000
  0.000 -0.000  0.490  0.000  0.386
 -0.013 -0.328  0.000  0.774 -0.000
  0.000  0.000  0.386 -0.000  0.698
   spin  2
    eigenvalues:
  0.191  0.288  0.993  0.993  0.994
    eigenvectors:
  0.000  0.003  0.720  0.000  0.278
  0.000  0.696  0.065  0.000  0.240
  0.643  0.000  0.000  0.357  0.000
  0.000  0.302  0.215  0.000  0.483
  0.357  0.000  0.000  0.643  0.000
    occupations:
  0.991 -0.030  0.000 -0.019  0.000
 -0.030  0.503 -0.000 -0.324  0.000
  0.000 -0.000  0.478  0.000  0.384
 -0.019 -0.324  0.000  0.781 -0.000
  0.000  0.000  0.384 -0.000  0.707
atomic mag. moment =    -0.000949
atom    4   Tr[ns(na)] (up, down, total) =   3.46578  3.45852  6.92430
   spin  1
    eigenvalues:
  0.224  0.260  0.993  0.994  0.995
    eigenvectors:
  0.001  0.000  0.488  0.511  0.000
  0.627  0.000  0.176  0.197  0.000
  0.000  0.713  0.000  0.000  0.287
  0.372  0.000  0.336  0.292  0.000
  0.000  0.287  0.000  0.000  0.713
    occupations:
  0.993  0.019  0.000  0.014  0.000
  0.019  0.511 -0.000 -0.372  0.000
  0.000 -0.000  0.471  0.000  0.333
  0.014 -0.372  0.000  0.708 -0.000
  0.000  0.000  0.333 -0.000  0.784
   spin  2
    eigenvalues:
  0.227  0.253  0.993  0.993  0.993
    eigenvectors:
  0.001  0.000  0.760  0.000  0.239
  0.618  0.000  0.107  0.000  0.275
  0.000  0.682  0.000  0.318  0.000
  0.381  0.000  0.133  0.000  0.486
  0.000  0.318  0.000  0.682  0.000
    occupations:
  0.992  0.021  0.000  0.017  0.000
  0.021  0.519 -0.000 -0.372  0.000
  0.000 -0.000  0.488  0.000  0.345
  0.017 -0.372  0.000  0.701 -0.000
  0.000  0.000  0.345 -0.000  0.758
atomic mag. moment =     0.007254
N of occupied +U levels =   27.303513
 --- exit write_ns ---

     negative rho (up, down):  0.000E+00 9.520E-04
 --- in v_hubbard ---
Hubbard energy    0.5993

     Magnetic moment per site:
     atom:    1    charge:   13.4469    magn:    3.3874    constr:    0.0000
     atom:    2    charge:   13.7131    magn:    0.1223    constr:    0.0000
     atom:    3    charge:   13.5321    magn:    0.0026    constr:    0.0000
     atom:    4    charge:   13.6939    magn:    0.0113    constr:    0.0000
     atom:    5    charge:    5.5866    magn:    0.0374    constr:    0.0000
     atom:    6    charge:    5.5866    magn:    0.0374    constr:    0.0000
     atom:    7    charge:    5.5872    magn:    0.0296    constr:    0.0000
     atom:    8    charge:    5.5872    magn:    0.0296    constr:    0.0000

     End of self-consistent calculation

 ------ SPIN UP ------------

          k = 0.0000 0.0000 0.0000 (  1213 PWs)   bands (ev):

   -77.9872 -74.9243 -74.8811 -74.3451 -44.5515 -43.0542 -43.0382 -40.6939
   -40.6739 -40.5948 -40.5788 -40.5119 -40.4676 -40.1125 -40.0402 -39.9576
    -7.4223  -6.4245  -6.3954  -6.1099   3.0509   3.6542   4.0398   4.5560
     4.7295   5.5806   5.9134   6.6675   6.9914   7.2542   7.4735   7.8451
     8.1266   8.2150   8.2793   8.5081   8.6558   9.2361   9.3000   9.4606
     9.5038   9.6666   9.7764   9.7848   9.8179  10.0401  12.1132  12.1993
    13.2400  13.7058  13.7425  14.0040  14.1652

     occupation numbers
     1.0000   1.0000   1.0000   1.0000   1.0000   1.0000   1.0000   1.0000
     1.0000   1.0000   1.0000   1.0000   1.0000   1.0000   1.0000   1.0000
     1.0000   1.0000   1.0000   1.0000   1.0000   1.0000   1.0000   1.0000
     1.0000   1.0000   1.0000   1.0000   1.0000   1.0000   1.0000   1.0000
     1.0000   1.0000   1.0000   1.0000   1.0000   1.0000   1.0000   1.0000
     1.0000   1.0000   1.0000   1.0000   1.0000   1.0000   0.0000   0.0000
     0.0000   0.0000   0.0000   0.0000   0.0000

[...]

          k =-0.5000 0.0000-0.1707 (  1212 PWs)   bands (ev):

[...]

 ------ SPIN DOWN ----------

[...]

          k = 0.0000-0.8463-0.5310 (  1212 PWs)   bands (ev):

[...]

          k =-0.5000-0.8463-0.7018 (  1212 PWs)   bands (ev):

   -74.9057 -74.8575 -74.2025 -74.0442 -40.6673 -40.6428 -40.6298 -40.5411
   -40.4972 -40.4809 -40.3287 -40.0156 -39.8766 -39.8185 -39.5907 -39.5773
    -6.3936  -6.2140  -6.0906  -5.9006   3.8947   4.3583   6.7287   6.7384
     6.7642   6.8644   7.3033   7.4537   7.5566   7.7363   8.5624   8.7532
     8.7833   8.8163   8.8227   9.1288   9.2535   9.4041   9.4748   9.6015
     9.6633  10.0011  12.2584  12.4859  13.0475  13.5754  13.6487  13.8704
    14.1021  14.2063  14.6560  15.2125  18.4582

     occupation numbers
     1.0000   1.0000   1.0000   1.0000   1.0000   1.0000   1.0000   1.0000
     1.0000   1.0000   1.0000   1.0000   1.0000   1.0000   1.0000   1.0000
     1.0000   1.0000   1.0000   1.0000   1.0000   1.0000   1.0000   1.0000
     1.0000   1.0000   1.0000   1.0000   1.0000   1.0000   1.0000   1.0000
     1.0000   1.0000   1.0000   1.0000   1.0000   1.0000   1.0000   1.0000
     1.0000   1.0000   0.0000   0.0000   0.0000   0.0000   0.0000   0.0000
     0.0000   0.0000   0.0000   0.0000   0.0000

     the Fermi energy is    10.6504 ev

!    total energy              =   -1457.85234312 Ry
     Harris-Foulkes estimate   =   -1457.85233944 Ry
     estimated scf accuracy    <       0.00000098 Ry

     total all-electron energy =    -10758.848128 Ry

     The total energy is the sum of the following terms:

     one-electron contribution =    -548.59415538 Ry
     hartree contribution      =     322.62024274 Ry
     xc contribution           =    -165.69328703 Ry
     ewald contribution        =    -744.67779108 Ry
     Hubbard energy            =       0.59927519 Ry
     one-center paw contrib.   =    -322.10696924 Ry
      -> PAW hartree energy AE =     423.48937965 Ry
      -> PAW hartree energy PS =    -421.98118196 Ry
      -> PAW xc energy AE      =    -213.36623875 Ry
      -> PAW xc energy PS      =      68.17249045 Ry
      -> total E_H with PAW    =     324.12844043 Ry
      -> total E_XC with PAW   =    -310.88703534 Ry
     smearing contrib. (-TS)   =       0.00034168 Ry

     total magnetization       =     4.00 Bohr mag/cell
     absolute magnetization    =     4.12 Bohr mag/cell

     convergence has been achieved in 155 iterations

     Writing output data file espresso.save

     General routines

     Parallel routines

     Hubbard U routines

     PAW routines

   This run was terminated on:   2:27:58  10Jan2024

   JOB DONE.