     Program PWSCF v.6.1 starts on  9Jan2024 at 18:50:39

     Current dimensions of program PWSCF are:
     Max number of different atomic species (ntypx) = 10
     Max number of k-points (npk) =  40000
     Max angular momentum in pseudopotentials (lmaxx) =  3
               file Fe.pz-spn-kjpaw_psl.0.2.1.UPF: wavefunction(s)  3D renormalized
               file O.pz-n-kjpaw_psl.0.1.UPF: wavefunction(s)  2P renormalized

     Subspace diagonalization in iterative solution of the eigenvalue problem:
     a serial algorithm will be used

     Found symmetry operation: I + (  0.5000 -0.5000  0.0000)
     This is a supercell, fractional translations are disabled

     Title:
     sdd(SCF)

     bravais-lattice index     =          -12
     lattice parameter (alat)  =      10.1022  a.u.
     unit-cell volume          =     573.5565 (a.u.)^3
     number of atoms/cell      =            8
     number of atomic types    =            2
     number of electrons       =        88.00
     number of Kohn-Sham states=           53
     kinetic-energy cutoff     =      35.0000  Ry
     charge density cutoff     =     315.0000  Ry
     convergence threshold     =      1.0E-06
     mixing beta               =       0.4000
     number of iterations used =            8  plain     mixing
     Exchange-correlation      =  SLA  PZ   NOGX NOGC ( 1  1  0  0 0 0)

     celldm(1)=  10.102230  celldm(2)=   0.590841  celldm(3)=   0.994962
     celldm(4)=   0.000000  celldm(5)=  -0.323174  celldm(6)=   0.000000

     crystal axes: (cart. coord. in units of alat)
               a(1) = (   1.000000   0.000000   0.000000 )
               a(2) = (   0.000000   0.590841   0.000000 )
               a(3) = (  -0.321546   0.000000   0.941572 )

     reciprocal axes: (cart. coord. in units 2 pi/alat)
               b(1) = (  1.000000 -0.000000  0.341499 )
               b(2) = (  0.000000  1.692502 -0.000000 )
               b(3) = (  0.000000  0.000000  1.062053 )

     PseudoPot. # 1 for Fe read from file:
     C:\Users\didar\.burai\.pseudopot/Fe.pz-spn-kjpaw_psl.0.2.1.UPF
     MD5 check sum: 27df73d5ef6bc58e09d33ce26ec3cbe0
     Pseudo is Projector augmented-wave + core cor, Zval = 16.0
     Generated using "atomic" code by A. Dal Corso  v.5.0.99 svn rev. 10869
     Shape of augmentation charge: PSQ
     Using radial grid of 1191 points,  6 beta functions with:
                l(1) =   0
                l(2) =   0
                l(3) =   1
                l(4) =   1
                l(5) =   2
                l(6) =   2
     Q(r) pseudized with 0 coefficients

     PseudoPot. # 2 for  O read from file:
     C:\Users\didar\.burai\.pseudopot/O.pz-n-kjpaw_psl.0.1.UPF
     MD5 check sum: ca354609ecacc13f4887e8db23a80a40
     Pseudo is Projector augmented-wave + core cor, Zval =  6.0
     Generated using "atomic" code by A. Dal Corso  v.5.0.99 svn rev. 10869
     Shape of augmentation charge: BESSEL
     Using radial grid of 1095 points,  4 beta functions with:
                l(1) =   0
                l(2) =   0
                l(3) =   1
                l(4) =   1
     Q(r) pseudized with 0 coefficients

     atomic species   valence    mass     pseudopotential
        Fe            16.00    55.84500     Fe( 1.00)
        O              6.00    15.99940      O( 1.00)

     Starting magnetic structure
     atomic species   magnetization
        Fe           0.200
        O            0.000

      4 Sym. Ops., with inversion, found

                                    s                        frac. trans.

      isym =  1     identity

 cryst.   s( 1) = (     1          0          0      )
                  (     0          1          0      )
                  (     0          0          1      )

 cart.    s( 1) = (  1.0000000  0.0000000  0.0000000 )
                  (  0.0000000  1.0000000  0.0000000 )
                  (  0.0000000  0.0000000  1.0000000 )

      isym =  2     180 deg rotation - cart. axis [0,1,0]

[...]

      isym =  3     inversion

[...]

      isym =  4     inv. 180 deg rotation - cart. axis [0,1,0]

 cryst.   s( 4) = (     1          0          0      )
                  (     0         -1          0      )
                  (     0          0          1      )

 cart.    s( 4) = (  1.0000000  0.0000000  0.0000000 )
                  (  0.0000000 -1.0000000  0.0000000 )
                  (  0.0000000  0.0000000  1.0000000 )

     point group C_2h (2/m)
     there are  4 classes
     the character table:

       E     C2    i     s_h
A_g    1.00  1.00  1.00  1.00
B_g    1.00 -1.00  1.00 -1.00
A_u    1.00  1.00 -1.00 -1.00
B_u    1.00 -1.00 -1.00  1.00

     the symmetry operations in each class and the name of the first element:

     E        1
          identity
     C2       2
          180 deg rotation - cart. axis [0,1,0]
     i        3
          inversion
     s_h      4
          inv. 180 deg rotation - cart. axis [0,1,0]

   Cartesian axes

     site n.     atom                  positions (alat units)
         1           Fe  tau(   1) = (   0.0000000   0.0000000   0.0000000  )
         2           Fe  tau(   2) = (   0.3392292   0.0000000   0.4707874  )
         3           Fe  tau(   3) = (   0.4999998   0.2954206   0.0000000  )
         4           Fe  tau(   4) = (  -0.1607707   0.2954206   0.4707874  )
         5           O   tau(   5) = (   0.6897287   0.0000000   0.2369702  )
         6           O   tau(   6) = (  -0.0112704   0.0000000   0.7046043  )
         7           O   tau(   7) = (   0.1897289   0.2954206   0.2369702  )
         8           O   tau(   8) = (   0.4887294   0.2954206   0.7046043  )

   Crystallographic axes

     site n.     atom                  positions (cryst. coord.)
         1           Fe  tau(   1) = (  0.0000000  0.0000000  0.0000000  )
         2           Fe  tau(   2) = (  0.5000026  0.0000000  0.5000013  )
         3           Fe  tau(   3) = (  0.4999998  0.5000000  0.0000000  )
         4           Fe  tau(   4) = (  0.0000028  0.5000000  0.5000013  )
         5           O   tau(   5) = (  0.7706538  0.0000000  0.2516750  )
         6           O   tau(   6) = (  0.2293513  0.0000000  0.7483273  )
         7           O   tau(   7) = (  0.2706540  0.5000000  0.2516750  )
         8           O   tau(   8) = (  0.7293511  0.5000000  0.7483273  )

     number of k points=    12  Marzari-Vanderbilt smearing, width (Ry)=  0.0100
                       cart. coord. in units 2pi/alat
        k(    1) = (   0.0000000   0.0000000   0.0000000), wk =   0.0625000
        k(    2) = (   0.0000000   0.0000000  -0.5310266), wk =   0.0625000
        k(    3) = (   0.0000000   0.4231256   0.0000000), wk =   0.1250000
        k(    4) = (   0.0000000   0.4231256  -0.5310266), wk =   0.1250000
        k(    5) = (   0.0000000  -0.8462511   0.0000000), wk =   0.0625000
        k(    6) = (   0.0000000  -0.8462511  -0.5310266), wk =   0.0625000
        k(    7) = (  -0.5000000   0.0000000  -0.1707495), wk =   0.0625000
        k(    8) = (  -0.5000000   0.0000000  -0.7017761), wk =   0.0625000
        k(    9) = (  -0.5000000   0.4231256  -0.1707495), wk =   0.1250000
        k(   10) = (  -0.5000000   0.4231256  -0.7017761), wk =   0.1250000
        k(   11) = (  -0.5000000  -0.8462511  -0.1707495), wk =   0.0625000
        k(   12) = (  -0.5000000  -0.8462511  -0.7017761), wk =   0.0625000

                       cryst. coord.
        k(    1) = (   0.0000000   0.0000000   0.0000000), wk =   0.0625000
        k(    2) = (   0.0000000   0.0000000  -0.5000000), wk =   0.0625000
        k(    3) = (   0.0000000   0.2500000   0.0000000), wk =   0.1250000
        k(    4) = (   0.0000000   0.2500000  -0.5000000), wk =   0.1250000
        k(    5) = (   0.0000000  -0.5000000   0.0000000), wk =   0.0625000
        k(    6) = (   0.0000000  -0.5000000  -0.5000000), wk =   0.0625000
        k(    7) = (  -0.5000000   0.0000000  -0.0000000), wk =   0.0625000
        k(    8) = (  -0.5000000   0.0000000  -0.5000000), wk =   0.0625000
        k(    9) = (  -0.5000000   0.2500000  -0.0000000), wk =   0.1250000
        k(   10) = (  -0.5000000   0.2500000  -0.5000000), wk =   0.1250000
        k(   11) = (  -0.5000000  -0.5000000  -0.0000000), wk =   0.0625000
        k(   12) = (  -0.5000000  -0.5000000  -0.5000000), wk =   0.0625000

     Check: negative/imaginary core charge=   -0.000230    0.000000

     Initial potential from superposition of free atoms

     starting charge   87.99860, renormalised to   88.00000
     Starting wfc are   68 randomized atomic wfcs
     Checking if some PAW data can be deallocated...
       node    0, deallocated PAW data for type:  2
       node    1, deallocated PAW data for type:  2
       node    2, deallocated PAW data for type:  1
       node    3, deallocated PAW data for type:  1
       node    4, deallocated PAW data for type:  1

     Self-consistent Calculation

     iteration #  1     ecut=    35.00 Ry     beta=0.40
     Davidson diagonalization with overlap
     ethr =  1.00E-02,  avg # of iterations =  2.0

     negative rho (up, down):  0.000E+00 5.222E-04

     total energy              =   -1460.59757653 Ry
     Harris-Foulkes estimate   =   -1461.17159572 Ry
     estimated scf accuracy    <       1.25314870 Ry

     total magnetization       =    16.03 Bohr mag/cell
     absolute magnetization    =    16.03 Bohr mag/cell

[...]

     total energy              =   -1461.02457412 Ry
     Harris-Foulkes estimate   =   -1461.02457375 Ry
     estimated scf accuracy    <       0.00000175 Ry

[...]

     iteration # 15     ecut=    35.00 Ry     beta=0.40
     Davidson diagonalization with overlap
     ethr =  1.98E-09,  avg # of iterations =  2.9

     negative rho (up, down):  0.000E+00 2.254E-03

     Magnetic moment per site:
     atom:    1    charge:   13.4144    magn:    3.3425    constr:    0.0000
     atom:    2    charge:   13.4106    magn:    3.3581    constr:    0.0000
     atom:    3    charge:   13.4146    magn:    3.3424    constr:    0.0000
     atom:    4    charge:   13.4106    magn:    3.3581    constr:    0.0000
     atom:    5    charge:    5.6111    magn:    0.3790    constr:    0.0000
     atom:    6    charge:    5.6111    magn:    0.3790    constr:    0.0000
     atom:    7    charge:    5.6112    magn:    0.3789    constr:    0.0000
     atom:    8    charge:    5.6112    magn:    0.3789    constr:    0.0000

     End of self-consistent calculation

 ------ SPIN UP ------------

          k = 0.0000 0.0000 0.0000 (  2005 PWs)   bands (ev):

   -76.3999 -76.3946 -76.3785 -76.3749 -42.6553 -42.6175 -42.5907 -42.5780
   -42.5743 -42.5368 -42.5363 -42.5203 -42.5083 -42.4810 -42.4770 -42.4742
    -7.1266  -6.0496  -5.9506  -5.9399   4.6207   4.6534   6.2944   6.5178
     6.5245   6.5307   6.5447   8.2188   8.3006   8.4004   8.9880   9.0529
     9.1516   9.2635   9.2639   9.2871   9.3005   9.4370   9.6522   9.7710
     9.7916   9.8310   9.8339  10.0051  10.0171  10.0601  10.3874  10.4212
    12.3245  12.4107  12.4122  12.4914  13.0166

     occupation numbers
     1.0000   1.0000   1.0000   1.0000   1.0000   1.0000   1.0000   1.0000
     1.0000   1.0000   1.0000   1.0000   1.0000   1.0000   1.0000   1.0000
     1.0000   1.0000   1.0000   1.0000   1.0000   1.0000   1.0000   1.0000
     1.0000   1.0000   1.0000   1.0000   1.0000   1.0000   1.0000   1.0000
     1.0000   1.0000   1.0000   1.0000   1.0000   1.0000   1.0000   1.0000
     1.0000   1.0000   1.0000   1.0000   1.0000   1.0000   1.0000   1.0000
     1.0211   1.0737   1.0745   1.0395   0.0000

[...]

          k =-0.5000 0.0000-0.1707 (  2012 PWs)   bands (ev):

[...]

 ------ SPIN DOWN ----------

[...]

          k = 0.0000-0.8463-0.5310 (  2004 PWs)   bands (ev):

[...]

          k =-0.5000-0.8463-0.7018 (  1968 PWs)   bands (ev):

   -72.5540 -72.5540 -72.5512 -72.5512 -38.8908 -38.8907 -38.8680 -38.8679
   -38.8595 -38.8595 -38.8592 -38.8591 -38.8404 -38.8404 -38.8293 -38.8293
    -5.4066  -5.4062  -5.3574  -5.3571   5.3807   5.3807   6.7906   6.7906
     7.9705   7.9706   8.1478   8.1481   8.9584   8.9587   9.0724   9.0724
    10.8101  10.8102  12.8996  12.8996  12.9593  12.9594  13.0278  13.0279
    13.2595  13.2595  13.3143  13.3143  13.3324  13.3324  13.4691  13.4692
    15.0554  15.0556  15.1925  15.1925  18.0453

     occupation numbers
     1.0000   1.0000   1.0000   1.0000   1.0000   1.0000   1.0000   1.0000
     1.0000   1.0000   1.0000   1.0000   1.0000   1.0000   1.0000   1.0000
     1.0000   1.0000   1.0000   1.0000   1.0000   1.0000   1.0000   1.0000
     1.0000   1.0000   1.0000   1.0000   1.0000   1.0000   1.0000   1.0000
     1.0000   1.0000   0.0004   0.0004   0.0000   0.0000   0.0000   0.0000
     0.0000   0.0000   0.0000   0.0000   0.0000   0.0000   0.0000   0.0000
     0.0000   0.0000   0.0000   0.0000   0.0000

     the Fermi energy is    12.6336 ev

!    total energy              =   -1461.02457452 Ry
     Harris-Foulkes estimate   =   -1461.02457441 Ry
     estimated scf accuracy    <       0.00000007 Ry

     total all-electron energy =    -10762.020359 Ry

     The total energy is the sum of the following terms:

     one-electron contribution =    -552.34729264 Ry
     hartree contribution      =     325.19831023 Ry
     xc contribution           =    -166.80400116 Ry
     ewald contribution        =    -744.67779107 Ry
     one-center paw contrib.   =    -322.39325071 Ry
      -> PAW hartree energy AE =     405.10412413 Ry
      -> PAW hartree energy PS =    -403.44242805 Ry
      -> PAW xc energy AE      =    -212.94510265 Ry
      -> PAW xc energy PS      =      67.45444356 Ry
      -> total E_H with PAW    =     326.86000630 Ry
      -> total E_XC with PAW   =    -312.29466025 Ry
     smearing contrib. (-TS)   =      -0.00054917 Ry

     total magnetization       =    16.04 Bohr mag/cell
     absolute magnetization    =    16.06 Bohr mag/cell

     convergence has been achieved in  15 iterations

     Writing output data file espresso.save

     General routines

     Parallel routines

     PAW routines

   This run was terminated on:  18:52:32   9Jan2024

   JOB DONE.