     Program PWSCF v.6.1 starts on 10Jan2024 at  3:20:31

     Current dimensions of program PWSCF are:
     Max number of different atomic species (ntypx) = 10
     Max number of k-points (npk) =  40000
     Max angular momentum in pseudopotentials (lmaxx) =  3
               file Fe.pbe-spn-kjpaw_psl.0.2.1.UPF: wavefunction(s)  3D renormalized
               file O.pbe-nl-kjpaw_psl.1.0.0.UPF: wavefunction(s)  2S 2P renormalized

     Subspace diagonalization in iterative solution of the eigenvalue problem:
     a serial algorithm will be used

     Found symmetry operation: I + (  0.5000 -0.5000  0.0000)
     This is a supercell, fractional translations are disabled

     Title:
     pbe(SCF)

     bravais-lattice index     =          -12
     lattice parameter (alat)  =      10.1022  a.u.
     unit-cell volume          =     573.5565 (a.u.)^3
     number of atoms/cell      =            8
     number of atomic types    =            2
     number of electrons       =        88.00
     number of Kohn-Sham states=           53
     kinetic-energy cutoff     =      35.0000  Ry
     charge density cutoff     =     315.0000  Ry
     convergence threshold     =      1.0E-06
     mixing beta               =       0.4000
     number of iterations used =            8  plain     mixing
     Exchange-correlation      =  SLA  PW   PBX  PBC ( 1  4  3  4 0 0)

     celldm(1)=  10.102230  celldm(2)=   0.590841  celldm(3)=   0.994962
     celldm(4)=   0.000000  celldm(5)=  -0.323174  celldm(6)=   0.000000

     crystal axes: (cart. coord. in units of alat)
               a(1) = (   1.000000   0.000000   0.000000 )
               a(2) = (   0.000000   0.590841   0.000000 )
               a(3) = (  -0.321546   0.000000   0.941572 )

     reciprocal axes: (cart. coord. in units 2 pi/alat)
               b(1) = (  1.000000 -0.000000  0.341499 )
               b(2) = (  0.000000  1.692502 -0.000000 )
               b(3) = (  0.000000  0.000000  1.062053 )

     PseudoPot. # 1 for Fe read from file:
     C:\Users\didar\.burai\.pseudopot/Fe.pbe-spn-kjpaw_psl.0.2.1.UPF
     MD5 check sum: e86618425769142926afa95317d90200
     Pseudo is Projector augmented-wave + core cor, Zval = 16.0
     Generated using "atomic" code by A. Dal Corso  v.5.0.99 svn rev. 10869
     Shape of augmentation charge: PSQ
     Using radial grid of 1191 points,  6 beta functions with:
                l(1) =   0
                l(2) =   0
                l(3) =   1
                l(4) =   1
                l(5) =   2
                l(6) =   2
     Q(r) pseudized with 0 coefficients

     PseudoPot. # 2 for  O read from file:
     C:\Users\didar\.burai\.pseudopot/O.pbe-nl-kjpaw_psl.1.0.0.UPF
     MD5 check sum: 492e7797a1e712effc24c868d1774817
     Pseudo is Projector augmented-wave + core cor, Zval =  6.0
     Generated using "atomic" code by A. Dal Corso  v.5.1.2
     Shape of augmentation charge: PSQ
     Using radial grid of 1095 points,  4 beta functions with:
                l(1) =   0
                l(2) =   0
                l(3) =   1
                l(4) =   1
     Q(r) pseudized with 0 coefficients

     atomic species   valence    mass     pseudopotential
        Fe            16.00    55.84500     Fe( 1.00)
        O              6.00    15.99940      O( 1.00)

     Starting magnetic structure
     atomic species   magnetization
        Fe           0.200
        O            0.000

      4 Sym. Ops., with inversion, found

   Cartesian axes

     site n.     atom                  positions (alat units)
         1           Fe  tau(   1) = (   0.0000000   0.0000000   0.0000000  )
         2           Fe  tau(   2) = (   0.3392292   0.0000000   0.4707874  )
         3           Fe  tau(   3) = (   0.4999998   0.2954206   0.0000000  )
         4           Fe  tau(   4) = (  -0.1607707   0.2954206   0.4707874  )
         5           O   tau(   5) = (   0.6897287   0.0000000   0.2369702  )
         6           O   tau(   6) = (  -0.0112704   0.0000000   0.7046043  )
         7           O   tau(   7) = (   0.1897289   0.2954206   0.2369702  )
         8           O   tau(   8) = (   0.4887294   0.2954206   0.7046043  )

     number of k points=    12  Marzari-Vanderbilt smearing, width (Ry)=  0.0100
                       cart. coord. in units 2pi/alat
        k(    1) = (   0.0000000   0.0000000   0.0000000), wk =   0.0625000
        k(    2) = (   0.0000000   0.0000000  -0.5310266), wk =   0.0625000
        k(    3) = (   0.0000000   0.4231256   0.0000000), wk =   0.1250000
        k(    4) = (   0.0000000   0.4231256  -0.5310266), wk =   0.1250000
        k(    5) = (   0.0000000  -0.8462511   0.0000000), wk =   0.0625000
        k(    6) = (   0.0000000  -0.8462511  -0.5310266), wk =   0.0625000
        k(    7) = (  -0.5000000   0.0000000  -0.1707495), wk =   0.0625000
        k(    8) = (  -0.5000000   0.0000000  -0.7017761), wk =   0.0625000
        k(    9) = (  -0.5000000   0.4231256  -0.1707495), wk =   0.1250000
        k(   10) = (  -0.5000000   0.4231256  -0.7017761), wk =   0.1250000
        k(   11) = (  -0.5000000  -0.8462511  -0.1707495), wk =   0.0625000
        k(   12) = (  -0.5000000  -0.8462511  -0.7017761), wk =   0.0625000

     Check: negative/imaginary core charge=   -0.000227    0.000000

     Initial potential from superposition of free atoms

     starting charge   87.99824, renormalised to   88.00000
     Starting wfc are   68 randomized atomic wfcs
     Checking if some PAW data can be deallocated...

     Self-consistent Calculation

     iteration #  1     ecut=    35.00 Ry     beta=0.40
     Davidson diagonalization with overlap
     ethr =  1.00E-02,  avg # of iterations =  2.0

     negative rho (up, down):  0.000E+00 5.097E-04

     total energy              =   -1482.54460717 Ry
     Harris-Foulkes estimate   =   -1483.16938386 Ry
     estimated scf accuracy    <       1.45949013 Ry

     total magnetization       =    16.10 Bohr mag/cell
     absolute magnetization    =    16.10 Bohr mag/cell

[...]

     total energy              =   -1483.04041438 Ry
     Harris-Foulkes estimate   =   -1483.04044370 Ry
     estimated scf accuracy    <       0.00001930 Ry

[...]

     iteration # 25     ecut=    35.00 Ry     beta=0.40
     Davidson diagonalization with overlap
     ethr =  6.01E-09,  avg # of iterations =  2.8

     negative rho (up, down):  0.000E+00 2.214E-03

     Magnetic moment per site:
     atom:    1    charge:   13.4166    magn:    3.3746    constr:    0.0000
     atom:    2    charge:   13.4112    magn:    3.3925    constr:    0.0000
     atom:    3    charge:   13.4167    magn:    3.3745    constr:    0.0000
     atom:    4    charge:   13.4120    magn:    3.3917    constr:    0.0000
     atom:    5    charge:    5.6582    magn:    0.3510    constr:    0.0000
     atom:    6    charge:    5.6582    magn:    0.3510    constr:    0.0000
     atom:    7    charge:    5.6581    magn:    0.3510    constr:    0.0000
     atom:    8    charge:    5.6581    magn:    0.3510    constr:    0.0000

     End of self-consistent calculation

 ------ SPIN UP ------------

          k = 0.0000 0.0000 0.0000 (  2005 PWs)   bands (ev):

   -76.9371 -76.9326 -76.8910 -76.8871 -42.9728 -42.9431 -42.8229 -42.8096
   -42.7464 -42.7083 -42.6065 -42.5808 -42.5349 -42.5342 -42.5275 -42.4966
    -6.9040  -5.8814  -5.7851  -5.7741   5.1280   5.1561   6.7961   6.8840
     6.8914   6.8978   6.9152   8.6847   8.7046   8.8832   9.2477   9.3544
     9.4365   9.4548   9.4770   9.7675   9.7777   9.8245   9.9198   9.9649
    10.0132  10.1709  10.1738  10.1973  10.2500  10.2989  10.6959  10.7788
    12.6379  12.6727  12.6734  12.7515  13.4334

[...]

          k =-0.5000 0.0000-0.1707 (  2012 PWs)   bands (ev):

[...]

 ------ SPIN DOWN ----------

[...]

          k = 0.0000-0.8463-0.5310 (  2004 PWs)   bands (ev):

[...]

          k =-0.5000-0.8463-0.7018 (  1968 PWs)   bands (ev):

   -72.7745 -72.7743 -72.7454 -72.7454 -38.7091 -38.7089 -38.6852 -38.6851
   -38.6623 -38.6623 -38.6541 -38.6540 -38.6300 -38.6299 -38.6010 -38.6009
    -5.2649  -5.2647  -5.2285  -5.2283   5.8672   5.8672   7.2139   7.2139
     8.4817   8.4818   8.6690   8.6692   9.3719   9.3721   9.4918   9.4918
    11.3475  11.3480  13.3167  13.3169  13.5090  13.5098  13.6224  13.6224
    13.7334  13.7335  13.8397  13.8399  14.0253  14.0255  14.2369  14.2372
    15.7530  15.7532  15.8298  15.8300  18.5202

     the Fermi energy is    13.1420 ev

!    total energy              =   -1483.04046568 Ry
     Harris-Foulkes estimate   =   -1483.04043080 Ry
     estimated scf accuracy    <       0.00000050 Ry

     total all-electron energy =    -10783.614190 Ry

     The total energy is the sum of the following terms:

     one-electron contribution =    -552.98930478 Ry
     hartree contribution      =     326.61120390 Ry
     xc contribution           =    -169.23020214 Ry
     ewald contribution        =    -744.67779107 Ry
     one-center paw contrib.   =    -342.75462835 Ry
     smearing contrib. (-TS)   =       0.00025675 Ry

     total magnetization       =    16.00 Bohr mag/cell
     absolute magnetization    =    16.06 Bohr mag/cell

     convergence has been achieved in  25 iterations

     Writing output data file espresso.save

     General routines

     Parallel routines

   This run was terminated on:   3:23:58  10Jan2024

   JOB DONE.